(set-logic BV) (define-fun origCir ((n210 Bool) (n325 Bool) (n254 Bool) (n207 Bool) (i63 Bool)) Bool (xor (and (xor n325 (not (and n254 n207))) n210) i63)) (synth-fun skel ((n210 Bool) (n325 Bool) (n254 Bool) (n207 Bool) (i63 Bool)) Bool) (declare-var n210 Bool) (declare-var n325 Bool) (declare-var n254 Bool) (declare-var n207 Bool) (declare-var i63 Bool) (constraint (= (origCir n210 n325 n254 n207 i63) (skel n210 n325 n254 n207 i63))) (check-synth)
